(set-info :smt-lib-version 2.6)
(set-logic QF_AUFLIA)
(set-info :source |
Benchmarks used in the followin paper:
Big proof engines as little proof engines: new results on rewrite-based satisfiability procedure
Alessandro Armando, Maria Paola Bonacina, Silvio Ranise, Stephan Schulz. 
PDPAR'05
http://www.ai.dist.unige.it/pdpar05/


|)
(set-info :category "crafted")
(set-info :status unsat)
(declare-fun a_707 () (Array Int Int))
(declare-fun a_709 () (Array Int Int))
(declare-fun a_711 () (Array Int Int))
(declare-fun a_713 () (Array Int Int))
(declare-fun a_715 () (Array Int Int))
(declare-fun a_717 () (Array Int Int))
(declare-fun a_719 () (Array Int Int))
(declare-fun a_720 () (Array Int Int))
(declare-fun a_722 () (Array Int Int))
(declare-fun a_724 () (Array Int Int))
(declare-fun a_726 () (Array Int Int))
(declare-fun a_728 () (Array Int Int))
(declare-fun a_730 () (Array Int Int))
(declare-fun a_732 () (Array Int Int))
(declare-fun a_734 () (Array Int Int))
(declare-fun a_736 () (Array Int Int))
(declare-fun e_706 () Int)
(declare-fun e_708 () Int)
(declare-fun e_710 () Int)
(declare-fun e_712 () Int)
(declare-fun e_714 () Int)
(declare-fun e_716 () Int)
(declare-fun e_718 () Int)
(declare-fun e_721 () Int)
(declare-fun e_723 () Int)
(declare-fun e_725 () Int)
(declare-fun e_727 () Int)
(declare-fun e_729 () Int)
(declare-fun e_731 () Int)
(declare-fun e_733 () Int)
(declare-fun e_735 () Int)
(declare-fun e_738 () Int)
(declare-fun i_737 () Int)
(declare-fun a1 () (Array Int Int))
(declare-fun i0 () Int)
(declare-fun i1 () Int)
(declare-fun i2 () Int)
(declare-fun i3 () Int)
(declare-fun i4 () Int)
(declare-fun i5 () Int)
(declare-fun i6 () Int)
(declare-fun i7 () Int)
(declare-fun sk ((Array Int Int) (Array Int Int)) Int)
(assert (= a_707 (store a1 i7 e_706)))
(assert (= a_709 (store a_707 i2 e_708)))
(assert (= a_711 (store a_709 i2 e_710)))
(assert (= a_713 (store a_711 i3 e_712)))
(assert (= a_715 (store a_713 i3 e_714)))
(assert (= a_717 (store a_715 i1 e_716)))
(assert (= a_719 (store a_717 i6 e_718)))
(assert (= a_720 (store a_719 i6 e_718)))
(assert (= a_722 (store a_720 i6 e_721)))
(assert (= a_724 (store a_722 i7 e_723)))
(assert (= a_726 (store a_724 i2 e_725)))
(assert (= a_728 (store a_726 i3 e_727)))
(assert (= a_730 (store a_728 i4 e_729)))
(assert (= a_732 (store a_730 i0 e_731)))
(assert (= a_734 (store a_732 i5 e_733)))
(assert (= a_736 (store a_734 i7 e_735)))
(assert (= e_706 (select a1 i2)))
(assert (= e_708 (select a1 i7)))
(assert (= e_710 (select a_709 i3)))
(assert (= e_712 (select a_709 i2)))
(assert (= e_714 (select a_713 i1)))
(assert (= e_716 (select a_713 i3)))
(assert (= e_718 (select a_717 i6)))
(assert (= e_721 (select a_720 i7)))
(assert (= e_723 (select a_720 i6)))
(assert (= e_725 (select a_724 i3)))
(assert (= e_727 (select a_724 i2)))
(assert (= e_729 (select a_728 i0)))
(assert (= e_731 (select a_728 i4)))
(assert (= e_733 (select a_732 i7)))
(assert (= e_735 (select a_732 i5)))
(assert (= e_738 (select a_736 i_737)))
(assert (= i_737 (sk a_736 a_736)))
(assert (not (= e_738 e_738)))
(check-sat)
(exit)
